
(set-logic ALL) 

(declare-datatype MyList ((Nil) (Cons (head Real) (tail MyList)) )) 
(declare-fun l0 () MyList) 
(declare-fun l1 () MyList) 
(declare-fun l2 () MyList) 
(declare-fun l3 () MyList) 
(declare-fun i0 () Real) 
(declare-fun i1 () Real) 
(assert (= l1 Nil) )
(assert (is-Cons Nil) )
(assert (or (= l3 l0) (= l3 Nil)) )
(assert (not (is-Cons l3)) )
(assert (is-Cons Nil) )
(assert (= l2 Nil) )
(assert (or (is-Cons Nil) (= l2 l2) (is-Cons Nil) (= l1 Nil)) )
(assert (or (= l0 Nil) (= l2 l2)) )
(check-sat)
